06_week/pr6_1.lp
\ Model pr6_1
\ LP format - for model browsing. Use MPS format to capture full model detail.
Minimize
  0 X[0,0] + 702 X[0,1] + 454 X[0,2] + 842 X[0,3] + 2396 X[0,4]
   + 1196 X[0,5] + 702 X[1,0] + 0 X[1,1] + 324 X[1,2] + 1093 X[1,3]
   + 2136 X[1,4] + 764 X[1,5] + 454 X[2,0] + 324 X[2,1] + 0 X[2,2]
   + 1137 X[2,3] + 2180 X[2,4] + 798 X[2,5] + 842 X[3,0] + 1093 X[3,1]
   + 1137 X[3,2] + 0 X[3,3] + 1616 X[3,4] + 1857 X[3,5] + 2396 X[4,0]
   + 2136 X[4,1] + 2180 X[4,2] + 1616 X[4,3] + 0 X[4,4] + 2900 X[4,5]
   + 1196 X[5,0] + 764 X[5,1] + 798 X[5,2] + 1857 X[5,3] + 2900 X[5,4]
   + 0 X[5,5] + 0 U[0]
Subject To
 c00: X[1,0] + X[2,0] + X[3,0] + X[4,0] + X[5,0] = 1
 c01: X[0,1] + X[2,1] + X[3,1] + X[4,1] + X[5,1] = 1
 c02: X[0,2] + X[1,2] + X[3,2] + X[4,2] + X[5,2] = 1
 c03: X[0,3] + X[1,3] + X[2,3] + X[4,3] + X[5,3] = 1
 c04: X[0,4] + X[1,4] + X[2,4] + X[3,4] + X[5,4] = 1
 c05: X[0,5] + X[1,5] + X[2,5] + X[3,5] + X[4,5] = 1
 c10: X[0,1] + X[0,2] + X[0,3] + X[0,4] + X[0,5] = 1
 c11: X[1,0] + X[1,2] + X[1,3] + X[1,4] + X[1,5] = 1
 c12: X[2,0] + X[2,1] + X[2,3] + X[2,4] + X[2,5] = 1
 c13: X[3,0] + X[3,1] + X[3,2] + X[3,4] + X[3,5] = 1
 c14: X[4,0] + X[4,1] + X[4,2] + X[4,3] + X[4,5] = 1
 c15: X[5,0] + X[5,1] + X[5,2] + X[5,3] + X[5,4] = 1
 c212: - 3 X[1,2] - 5 X[2,1] + U[1] - U[2] >= -4
 c213: - 3 X[1,3] - 5 X[3,1] + U[1] - U[3] >= -4
 c214: - 3 X[1,4] - 5 X[4,1] + U[1] - U[4] >= -4
 c215: - 3 X[1,5] - 5 X[5,1] + U[1] - U[5] >= -4
 c221: - 5 X[1,2] - 3 X[2,1] - U[1] + U[2] >= -4
 c223: - 3 X[2,3] - 5 X[3,2] + U[2] - U[3] >= -4
 c224: - 3 X[2,4] - 5 X[4,2] + U[2] - U[4] >= -4
 c225: - 3 X[2,5] - 5 X[5,2] + U[2] - U[5] >= -4
 c231: - 5 X[1,3] - 3 X[3,1] - U[1] + U[3] >= -4
 c232: - 5 X[2,3] - 3 X[3,2] - U[2] + U[3] >= -4
 c234: - 3 X[3,4] - 5 X[4,3] + U[3] - U[4] >= -4
 c235: - 3 X[3,5] - 5 X[5,3] + U[3] - U[5] >= -4
 c241: - 5 X[1,4] - 3 X[4,1] - U[1] + U[4] >= -4
 c242: - 5 X[2,4] - 3 X[4,2] - U[2] + U[4] >= -4
 c243: - 5 X[3,4] - 3 X[4,3] - U[3] + U[4] >= -4
 c245: - 3 X[4,5] - 5 X[5,4] + U[4] - U[5] >= -4
 c251: - 5 X[1,5] - 3 X[5,1] - U[1] + U[5] >= -4
 c252: - 5 X[2,5] - 3 X[5,2] - U[2] + U[5] >= -4
 c253: - 5 X[3,5] - 3 X[5,3] - U[3] + U[5] >= -4
 c254: - 5 X[4,5] - 3 X[5,4] - U[4] + U[5] >= -4
 c31: 4 X[0,1] + U[1] <= 5
 c41: - 4 X[1,0] + U[1] >= 1
 c32: 4 X[0,2] + U[2] <= 5
 c42: - 4 X[2,0] + U[2] >= 1
 c33: 4 X[0,3] + U[3] <= 5
 c43: - 4 X[3,0] + U[3] >= 1
 c34: 4 X[0,4] + U[4] <= 5
 c44: - 4 X[4,0] + U[4] >= 1
 c35: 4 X[0,5] + U[5] <= 5
 c45: - 4 X[5,0] + U[5] >= 1
Bounds
Binaries
 X[0,0] X[0,1] X[0,2] X[0,3] X[0,4] X[0,5] X[1,0] X[1,1] X[1,2] X[1,3]
 X[1,4] X[1,5] X[2,0] X[2,1] X[2,2] X[2,3] X[2,4] X[2,5] X[3,0] X[3,1]
 X[3,2] X[3,3] X[3,4] X[3,5] X[4,0] X[4,1] X[4,2] X[4,3] X[4,4] X[4,5]
 X[5,0] X[5,1] X[5,2] X[5,3] X[5,4] X[5,5]
Generals
 U[0] U[1] U[2] U[3] U[4] U[5]
End
