06_week/pr6_1.sol
# Solution for model pr6_1
# Objective value = 6610
X[0,0] 0
X[0,1] 0
X[0,2] 0
X[0,3] 1
X[0,4] 0
X[0,5] 0
X[1,0] 0
X[1,1] 0
X[1,2] 0
X[1,3] 0
X[1,4] 0
X[1,5] 1
X[2,0] 1
X[2,1] 0
X[2,2] 0
X[2,3] 0
X[2,4] 0
X[2,5] 0
X[3,0] 0
X[3,1] 0
X[3,2] 0
X[3,3] 0
X[3,4] 1
X[3,5] 0
X[4,0] 0
X[4,1] 1
X[4,2] 0
X[4,3] 0
X[4,4] 0
X[4,5] 0
X[5,0] 0
X[5,1] 0
X[5,2] 1
X[5,3] 0
X[5,4] 0
X[5,5] 0
U[0] 0
U[1] 3
U[2] 5
U[3] 1
U[4] 2
U[5] 4
